Route #1: 1 32 20 18 4 26 23 10 1
Route #2: 1 9 16 29 28 25 34 5 13 1
Route #3: 1 8 6 22 33 43 38 11 12 27 1
Route #4: 1 21 31 24 41 30 7 1
Route #5: 1 3 42 39 37 15 14 44 1
Route #6: 1 2 36 19 17 40 35 1
cost 1106
